nServices=10;
nDrivers=15;
nBuses=15;
maxBuses=12;
startingTime=[11 114 92 132 164 75 105 179 74 185];
durationTime=[22 19 28 10 22 19 12 27 20 23];
durationDist=[46 41 20 54 38 39 37 53 51 32];
passengers=[7 16 2 12 18 16 20 13 3 9];
capacity=[25 22 23 22 28 21 10 18 22 16 28 26 20 21 20];
costTime=[6 9 10 9 6 6 10 8 6 6 7 8 9 7 9];
costDist=[2 5 6 6 6 2 3 2 2 5 2 4 5 5 2];
maxTime=[37 49 59 25 46 39 45 54 43 37 52 49 57 24 44];
costBM=[6 7 7 7 7 6 7 7 8 5 7 7 8 5 7];
costEM=[11 10 8 11 8 8 10 10 12 12 12 9 8 10 8];
BM=[17 11 12 17 15 14 11 18 15 14 14 16 14 13 20];
